units metal
boundary p p p
atom_style atomic
variable i loop 30
variable x equal 3.90+0.01*$i

# Define a lattice for use by other commands.
lattice fcc $x
region box block 0 1 0 1 0 1
create_box 1 box
create_atoms 1 box

pair_style eam/fs
pair_coeff * * Al_mm.eam.fs Al

variable n equal count(all)
variable P equal pe/$n

run 0
print "Cohesive Energy of Al a = $x E = $P"
clear 
next i
jump SELF
