#---------------Initialize Simulation -----------------------#
units lj
dimension 2
boundary p p p
atom_style atomic
variable t equal 0.5

#-------------- Create Atoms Initial Conditions------------- #
lattice sq 1.0
region box block 0 100 0 100 -0.5 0.5
create_box 2 box
create_atoms 1 random 2500 12345 box
create_atoms 2 random 2500 54321 box
mass 1 1.0
mass 2 1.0

#---------------- Define Interatomic Potential --------------#
pair_style hybrid lj/cut 2.5 soft 5.0
pair_coeff 1 1 lj/cut 1.0 1.0 2.5
pair_coeff 2 2 lj/cut 1.0 1.0 2.5
pair_coeff 1 2 soft 5.0

#--------------- Run MD Simulation --------------------------#
compute eng all pe/atom
compute eatoms all reduce sum c_eng
thermo_style custom step temp epair etotal press c_eatoms
thermo 1000
dump id all atom 100 dump.lammpstrj
minimize 1e-4 1e-6 1000 10000
velocity all create $t 87287
fix nvt all nvt temp $t $t 0.01
run 50000
