units metal
boundary p p p
atom_style atomic
#------------- setup loop -------------#
variable i loop 40
variable x equal 3.40+0.01*$i
lattice fcc $x
region box block 0 1 0 1 0 1
create_box 1 box
create_atoms 1 box
mass 1 64

#------------- Cu EAM parameter -------------#
pair_style eam
pair_coeff * * Cu_u3.eam
variable v equal ($x)^3
variable n equal count(all)
variable P equal pe

#------------- run -------------#
run 0
print "Cohesive Energy of Cu v = $v x = $x E = $P "
clear 
next i
jump SELF
