units lj
boundary p p p
atom_style atomic

label loop_i
variable i  loop  50
variable x  equal  1.02+0.002*$i

lattice fcc $x
region     box block 0 1 0 1 0 1
create_box 1 box
create_atoms 1 box
mass 1 1.0

pair_style  lj/cut  4.0
pair_coeff  1  1  1.0  1.0  4.0

variable P equal pe
variable L equal (count(all)/$x)^(1/3)

run 0
print  "Cohesive Energy of Ar a = $L E = $P"
clear
next i
jump SELF loop_i
